c This is QMaxSAT 2017 based on 14.07
c This is Glucose 3.0
c This is MiniSat 2.2.0
c WARNING: for repeatability, setting FPU to use double precision
c card = mrwto, comp = 0, pmodel = 0, narr = 6, mct = 29, verb = 0
cr firstCPXsol 0 0 0
c top = 167313
c |  Number of variables:    2312                                             |
c |  Number of clauses:      66218                                            |
c |  Weight of hard clauses: 167313                                           |
c |  Number of soft clauses: 6552                                             |
c |  Number of unit soft clauses: 0                                           |
c |  Maximum Cardinality (by unit): 1301172      (0           )               |
c last restart ## conflicts  :  0 173 
o 1479 | cpuTime 0.009771 s
c Sum of weights = 216862
c A number of soft clauses remained = 1092
c MRWTO encoding for Pseudo-Boolean Constraints
c sizeMax=1479
c No.0 Divisor=12	generated by pow1
c No.1 Divisor=12	generated by pow1
c No.2 Divisor=12	generated by pow1
c p0= 12	p1= 12	p2= 12	
c number of digits = 4
c linkingVar[0].size = 12, linkingVar[1].size = 12, linkingVar[2].size = 11, linkingVar[3].size = 1, 
c Pseudo-Boolean Constraints: 24350 variables and 236105 clauses
c Sum of weights = 216862
c A number of soft clauses remained = 1092
c MRWTO encoding for Pseudo-Boolean Constraints
c sizeMax=1479
c No.0 Divisor=12	generated by pow1
c No.1 Divisor=12	generated by pow1
c No.2 Divisor=12	generated by pow1
c p0= 12	p1= 12	p2= 12	
c number of digits = 4
c linkingVar[0].size = 12, linkingVar[1].size = 12, linkingVar[2].size = 11, linkingVar[3].size = 1, 
c Pseudo-Boolean Constraints: 24350 variables and 236105 clauses
c Sum of weights = 216862
c A number of soft clauses remained = 1092
c MRWTO encoding for Pseudo-Boolean Constraints
c sizeMax=1479
c No.0 Divisor=12	generated by pow1
c No.1 Divisor=12	generated by pow1
c No.2 Divisor=12	generated by pow1
c p0= 12	p1= 12	p2= 12	
c number of digits = 4
c linkingVar[0].size = 12, linkingVar[1].size = 12, linkingVar[2].size = 11, linkingVar[3].size = 1, 
c Pseudo-Boolean Constraints: 24350 variables and 236105 clauses
c Sum of weights = 216862
c A number of soft clauses remained = 1092
c MRWTO encoding for Pseudo-Boolean Constraints
c sizeMax=1479
c No.0 Divisor=12	generated by pow1
c No.1 Divisor=12	generated by pow1
c No.2 Divisor=12	generated by pow1
c p0= 12	p1= 12	p2= 12	
c number of digits = 4
c linkingVar[0].size = 12, linkingVar[1].size = 12, linkingVar[2].size = 11, linkingVar[3].size = 1, 
c Pseudo-Boolean Constraints: 24350 variables and 236105 clauses
c Sum of weights = 216862
c A number of soft clauses remained = 1092
c MRWTO encoding for Pseudo-Boolean Constraints
c sizeMax=1479
c No.0 Divisor=12	generated by pow1
c No.1 Divisor=12	generated by pow1
c No.2 Divisor=12	generated by pow1
c p0= 12	p1= 12	p2= 12	
c number of digits = 4
c linkingVar[0].size = 12, linkingVar[1].size = 12, linkingVar[2].size = 11, linkingVar[3].size = 1, 
c Pseudo-Boolean Constraints: 24350 variables and 236105 clauses
c Sum of weights = 216862
c A number of soft clauses remained = 1092
c MRWTO encoding for Pseudo-Boolean Constraints
c sizeMax=1479
c No.0 Divisor=12	generated by pow1
c No.1 Divisor=12	generated by pow1
c No.2 Divisor=12	generated by pow1
c p0= 12	p1= 12	p2= 12	
c number of digits = 4
c linkingVar[0].size = 12, linkingVar[1].size = 12, linkingVar[2].size = 11, linkingVar[3].size = 1, 
c Pseudo-Boolean Constraints: 24350 variables and 236105 clauses
c last restart ## conflicts  :  94 2838 
o 1429 | cpuTime 2.09396 s
c last restart ## conflicts  :  145 2768 
o 1366 | cpuTime 2.80084 s
c last restart ## conflicts  :  191 3489 
o 1347 | cpuTime 3.66335 s
c last restart ## conflicts  :  42 2773 
o 1288 | cpuTime 6.62375 s
c last restart ## conflicts  :  89 2031 
o 1238 | cpuTime 8.60887 s
c last restart ## conflicts  :  304 2508 
o 1202 | cpuTime 9.12784 s
c last restart ## conflicts  :  853 2017 
o 1145 | cpuTime 10.8582 s
c last restart ## conflicts  :  1104 1886 
o 1134 | cpuTime 14.8482 s
c last restart ## conflicts  :  348 2178 
o 1088 | cpuTime 20.5311 s
c last restart ## conflicts  :  182 2713 
o 1046 | cpuTime 75.2412 s
c last restart ## conflicts  :  877 1998 
o 1040 | cpuTime 81.8578 s
c last restart ## conflicts  :  19 1935 
o 989 | cpuTime 81.887 s
c last restart ## conflicts  :  8 2506 
o 978 | cpuTime 456.81 s
c last restart ## conflicts  :  1050 2680 
o 962 | cpuTime 496.746 s
c last restart ## conflicts  :  937 2546 
o 918 | cpuTime 1765.67 s
c last restart ## conflicts  :  233 1959 
o 887 | cpuTime 2404.29 s
s UNKNOWN
c Search is stopped by a limit (maybe time-limit)
cr positiVarArr: [ | 28(1->23) | 67(1->28) | 90(1->17) | 128(1->21) | 157(1->16) | 195(1->20) | 212(2->3) | 253(3->10) | 292(4->15) | 320(5->9) | 341(6->1) | 398(7->19) | 418(8->5) | 473(9->26) | 487(10->6) | 522(11->7) | 550(12->1) | 582(13->1) | 617(14->1) | 673(15->22) | 689(16->4) | 733(17->14) | 750(18->1) | 800(19->13) | 832(20->11) | 884(21->29) | 913(22->24) | 948(23->25) | 984(24->27) | 1009(25->18) | 1037(26->12) | 1057(27->1) | 1101(28->8) | 1129(29->2) | ]
cr the 1-th chain: [ 1->23->25->18->1 ] (#non-depot=3) {#cumul.=4}
cr the 2-th chain: [ 1->28->8->5->9->26->12->1 ] (#non-depot=6) {#cumul.=10}
cr the 3-th chain: [ 1->17->14->1 ] (#non-depot=2) {#cumul.=12}
cr the 4-th chain: [ 1->21->29->2->3->10->6->1 ] (#non-depot=6) {#cumul.=18}
cr the 5-th chain: [ 1->16->4->15->22->24->27->1 ] (#non-depot=6) {#cumul.=24}
cr the 6-th chain: [ 1->20->11->7->19->13->1 ] (#non-depot=5) {#cumul.=29}
c Latest Answer = 0 by 17 loops
c restarts              : 55468
c conflicts             : 19719352       (5483 /sec)
c decisions             : 64169330       (0.00 % random) (17843 /sec)
c propagations          : 25765521430    (7164505 /sec)
c conflict literals     : 1470815244     (37.69 % deleted)
c Memory used           : 512.00 MB
c CPU time              : 3596.27 s
